c preprocessed version of celar01, 58 vertices, 311 edges
p td 58 311
1 0
42 0
43 0
49 0
1 2
1 42
49 1
41 1
47 1
2 3
2 25
2 34
37 2
38 2
3 4
23 3
3 29
3 24
3 25
3 33
3 34
16 3
5 4
14 4
13 4
16 4
15 4
25 4
20 4
19 4
32 4
34 4
4 21
18 4
6 5
5 12
13 5
15 5
34 5
5 22
5 19
5 20
5 27
5 25
5 21
5 24
5 32
5 31
5 30
5 29
23 5
14 5
16 5
18 5
35 5
6 7
6 11
6 24
6 25
6 33
6 22
6 32
23 6
14 6
16 6
37 6
38 6
8 7
13 7
7 24
7 22
7 17
7 12
7 19
7 26
7 11
7 50
7 30
9 7
10 7
14 7
16 7
18 7
8 9
45 8
36 8
48 8
10 9
9 11
9 12
16 9
9 17
36 9
10 11
10 12
10 17
36 10
16 10
37 10
35 10
12 11
17 11
11 50
16 11
13 12
12 20
17 12
16 12
14 13
13 15
13 31
13 20
13 27
13 26
13 30
13 29
13 21
13 19
16 13
18 13
14 15
14 22
14 23
14 20
14 28
14 26
14 30
14 31
14 32
14 21
14 16
14 18
16 15
15 22
15 31
15 27
15 26
15 30
15 29
15 19
15 28
18 15
16 17
16 22
16 25
16 20
16 19
16 28
16 27
16 26
16 29
16 30
16 31
16 32
16 33
16 34
16 21
16 18
35 16
18 17
35 17
18 19
18 28
18 32
18 21
18 50
35 18
19 20
19 28
19 21
20 21
22 21
23 21
25 21
28 21
23 22
24 22
22 26
22 33
32 22
23 24
23 33
23 32
37 23
38 23
24 25
34 24
24 32
24 33
35 24
25 26
31 25
34 25
25 30
27 26
26 29
32 26
26 30
27 28
27 29
31 27
27 30
30 29
31 30
32 33
34 33
35 36
37 35
35 38
35 39
40 35
37 36
37 38
37 39
40 37
38 39
40 38
40 39
41 40
40 47
40 46
48 40
41 42
41 47
41 46
48 41
43 42
47 42
44 43
43 45
43 49
47 43
46 43
44 45
44 49
46 44
46 45
48 45
47 46
46 48
48 47
51 3
51 52
51 5
51 56
51 24
51 15
51 32
51 22
51 31
51 26
51 30
51 33
51 27
51 53
51 14
51 16
51 54
51 55
51 18
52 7
52 56
52 12
52 53
52 10
52 16
52 54
52 55
52 39
53 7
53 10
53 56
53 16
53 54
53 55
53 39
54 56
54 14
54 16
54 18
54 55
55 56
55 14
55 16
55 18
56 6
56 13
56 15
56 50
56 20
56 24
56 31
56 33
56 22
56 27
56 30
56 29
56 23
56 14
56 16
56 18
57 51
57 52
57 53
57 54
57 55
57 56
57 5
57 44
57 43
57 49
